(set-logic HORN)
(set-info :source |
    Benchmark: C_VC
    Output by Princess (http://www.philipp.ruemmer.org/princess.shtml)
|)
(set-info :status sat)
(declare-fun inv_main25 (Int Int Int Int Int Int) Bool)
(declare-fun inv_main34 (Int Int Int Int Int Int) Bool)
(declare-fun inv_main4 (Int Int Int Int Int Int) Bool)
(assert (forall ((var0 Int) (var1 Int) (var2 Int) (var3 Int) (var4 Int)) (inv_main4 0 var4 var3 var2 var1 var0)))
(assert (forall ((var0 Int) (var1 Int) (var2 Int) (var3 Int) (var4 Int) (var5 Int) (var6 Int) (var7 Int) (var8 Int) (var9 Int) (var10 Int) (var11 Int) (var12 Int) (var13 Int) (var14 Int) (var15 Int) (var16 Int) (var17 Int) (var18 Int) (var19 Int) (var20 Int) (var21 Int)) (or (not (and (inv_main4 var21 var20 var19 var18 var17 var16) (and (<= 0 (+ (+ 5 (* (- 1) var15)) (- 1))) (and (and (not (= var14 0)) (and (and (and (and (and (and (= var15 var13) (= var12 var11)) (= var10 var9)) (= var8 var7)) (= var6 var5)) (= var4 var3)) (or (and (<= 0 (+ var9 (- 1))) (= var14 1)) (and (not (<= 0 (+ var9 (- 1)))) (= var14 0))))) (and (not (= var2 0)) (and (and (and (and (and (and (= var13 var21) (= var11 var1)) (= var9 var0)) (= var7 var18)) (= var5 var17)) (= var3 var16)) (or (and (<= 0 (+ var1 (- 1))) (= var2 1)) (and (not (<= 0 (+ var1 (- 1)))) (= var2 0))))))))) (inv_main25 (+ var15 1) var12 var10 1 var12 1))))
(assert (forall ((var0 Int) (var1 Int) (var2 Int) (var3 Int) (var4 Int) (var5 Int) (var6 Int) (var7 Int) (var8 Int) (var9 Int) (var10 Int) (var11 Int) (var12 Int) (var13 Int) (var14 Int) (var15 Int) (var16 Int) (var17 Int)) (or (not (and (inv_main25 var17 var16 var15 var14 var13 var12) (and (and (<= 0 (+ (+ 5 (* (- 1) var11)) (- 1))) (and (<= 0 (+ (+ var15 (* (- 1) var12)) (- 1))) (and (and (and (and (and (= var10 var17) (= var9 var16)) (= var8 var15)) (= var7 (+ (* var14 var16) 1))) (= var6 var13)) (= var5 (+ var12 1))))) (and (and (and (and (and (= var11 var10) (= var4 var9)) (= var3 var8)) (= var2 var7)) (= var1 (* var6 var9))) (= var0 var5))))) (inv_main25 (+ var11 1) var4 var3 var2 var1 var0))))
(assert (forall ((var0 Int) (var1 Int) (var2 Int) (var3 Int) (var4 Int) (var5 Int)) (or (not (and (inv_main25 var5 var4 var3 var2 var1 var0) (not (<= 0 (+ (+ var3 (* (- 1) var0)) (- 1)))))) (inv_main34 var5 var4 var3 (* var2 (+ var4 (- 1))) var1 var0))))
(assert (forall ((var0 Int) (var1 Int) (var2 Int) (var3 Int) (var4 Int) (var5 Int) (var6 Int) (var7 Int) (var8 Int) (var9 Int) (var10 Int) (var11 Int) (var12 Int) (var13 Int) (var14 Int) (var15 Int) (var16 Int) (var17 Int) (var18 Int) (var19 Int) (var20 Int) (var21 Int)) (or (not (and (inv_main4 var21 var20 var19 var18 var17 var16) (and (not (<= 0 (+ (+ 5 (* (- 1) var15)) (- 1)))) (and (and (not (= var14 0)) (and (and (and (and (and (and (= var15 var13) (= var12 var11)) (= var10 var9)) (= var8 var7)) (= var6 var5)) (= var4 var3)) (or (and (<= 0 (+ var9 (- 1))) (= var14 1)) (and (not (<= 0 (+ var9 (- 1)))) (= var14 0))))) (and (not (= var2 0)) (and (and (and (and (and (and (= var13 var21) (= var11 var1)) (= var9 var0)) (= var7 var18)) (= var5 var17)) (= var3 var16)) (or (and (<= 0 (+ var1 (- 1))) (= var2 1)) (and (not (<= 0 (+ var1 (- 1)))) (= var2 0))))))))) (inv_main34 (+ var15 1) var12 var10 (* 1 (+ var12 (- 1))) var12 1))))
(assert (forall ((var0 Int) (var1 Int) (var2 Int) (var3 Int) (var4 Int) (var5 Int) (var6 Int) (var7 Int) (var8 Int) (var9 Int) (var10 Int) (var11 Int) (var12 Int) (var13 Int) (var14 Int) (var15 Int) (var16 Int) (var17 Int)) (or (not (and (inv_main25 var17 var16 var15 var14 var13 var12) (and (and (not (<= 0 (+ (+ 5 (* (- 1) var11)) (- 1)))) (and (<= 0 (+ (+ var15 (* (- 1) var12)) (- 1))) (and (and (and (and (and (= var10 var17) (= var9 var16)) (= var8 var15)) (= var7 (+ (* var14 var16) 1))) (= var6 var13)) (= var5 (+ var12 1))))) (and (and (and (and (and (= var11 var10) (= var4 var9)) (= var3 var8)) (= var2 var7)) (= var1 (* var6 var9))) (= var0 var5))))) (inv_main34 (+ var11 1) var4 var3 (* var2 (+ var4 (- 1))) var1 var0))))
(assert (forall ((var0 Int) (var1 Int) (var2 Int) (var3 Int) (var4 Int) (var5 Int)) (not (and (inv_main25 var5 var4 var3 var2 var1 var0) (not (= (+ (+ (+ (* var2 var4) (* (- 1) var2)) (* (- 1) var1)) 1) 0))))))
(assert (forall ((var0 Int) (var1 Int) (var2 Int) (var3 Int) (var4 Int) (var5 Int)) (not (and (inv_main34 var5 var4 var3 var2 var1 var0) (not (= (+ (+ 1 var2) (* (- 1) var1)) 0))))))
(check-sat)
